Minimize
	value: tt

Subject to
tt + 1000 s_1_1 > 0.0
tt - t_1_1 - 1006.353174 s_1_1  + 3.176587 s_1_8  + 3.176587 s_1_7  > -988.795800
tt + 1000 s_2_1 > 0.0
tt - t_2_1 - 1006.247524 s_2_1  + 3.123762 s_2_8  + 3.123762 s_2_7  > -990.977917
tt + 1000 s_1_2 > 0.0
tt - t_1_2 - 1003.176587 s_1_2  + 3.176587 s_1_7  > -988.699278
tt + 1000 s_2_2 > 0.0
tt - t_2_2 - 1003.123762 s_2_2  + 3.123762 s_2_7  > -990.776978
tt + 1000 s_1_3 > 0.0
tt - t_1_3 - 1006.353174 s_1_3  + 3.176587 s_1_8  + 3.176587 s_1_7  > -998.340833
tt + 1000 s_2_3 > 0.0
tt - t_2_3 - 1006.247524 s_2_3  + 3.123762 s_2_8  + 3.123762 s_2_7  > -998.091633
tt + 1000 s_1_4 > 0.0
tt - t_1_4 - 1003.176587 s_1_4  + 3.176587 s_1_7  > -997.482950
tt + 1000 s_2_4 > 0.0
tt - t_2_4 - 1003.123762 s_2_4  + 3.123762 s_2_7  > -997.107567
tt + 1000 s_1_5 > 0.0
tt - t_1_5 - 1003.176587 s_1_5  + 3.176587 s_1_8  > -994.621800
tt + 1000 s_2_5 > 0.0
tt - t_2_5 - 1003.123762 s_2_5  + 3.123762 s_2_8  > -995.371867
tt + 1000 s_1_6 > 0.0
tt - t_1_6 - 1019.059522 s_1_6  + 3.176587 s_1_2  + 3.176587 s_1_1  + 3.176587 s_1_7  + 3.176587 s_1_4  + 3.176587 s_1_5  + 3.176587 s_1_3  > -998.984400
tt + 1000 s_2_6 > 0.0
tt - t_2_6 - 1018.742571 s_2_6  + 3.123762 s_2_2  + 3.123762 s_2_1  + 3.123762 s_2_7  + 3.123762 s_2_4  + 3.123762 s_2_5  + 3.123762 s_2_3  > -998.295375
tt + 1000 s_1_7 > 0.0
tt - t_1_7 - 1000.000000 s_1_7  > -984.725814
tt + 1000 s_2_7 > 0.0
tt - t_2_7 - 1000.000000 s_2_7  > -993.175367
tt + 1000 s_1_8 > 0.0
tt - t_1_8 - 1000.000000 s_1_8  > -985.034000
tt + 1000 s_2_8 > 0.0
tt - t_2_8 - 1000.000000 s_2_8  > -993.642300
s_1_1 + s_2_1 = 1
s_1_2 + s_2_2 = 1
s_1_3 + s_2_3 = 1
s_1_4 + s_2_4 = 1
s_1_5 + s_2_5 = 1
s_1_6 + s_2_6 = 1
s_1_7 + s_2_7 = 1
s_1_8 + s_2_8 = 1
s_1_1 + s_1_2 + 1000 r_1_1_2 >= 2
- s_1_1 - s_1_2 - 1000 r_1_1_2 >= -1001
t_1_1 - t_1_2 - 1000.000000 u_1_1_2 - 3.176587 s_1_2  + 3.176587 s_1_7  + 2000.000000 r_1_1_2 > -988.699278
s_2_1 + s_2_2 + 1000 r_2_1_2 >= 2
- s_2_1 - s_2_2 - 1000 r_2_1_2 >= -1001
t_2_1 - t_2_2 - 1000.000000 u_2_1_2 - 3.123762 s_2_2  + 3.123762 s_2_7  + 2000.000000 r_2_1_2 > -990.776978
s_1_1 + s_1_3 + 1000 r_1_1_3 >= 2
- s_1_1 - s_1_3 - 1000 r_1_1_3 >= -1001
t_1_1 - t_1_3 - 1000.000000 u_1_1_3 - 6.353174 s_1_3  + 3.176587 s_1_8  + 3.176587 s_1_7  + 2000.000000 r_1_1_3 > -998.340833
s_2_1 + s_2_3 + 1000 r_2_1_3 >= 2
- s_2_1 - s_2_3 - 1000 r_2_1_3 >= -1001
t_2_1 - t_2_3 - 1000.000000 u_2_1_3 - 6.247524 s_2_3  + 3.123762 s_2_8  + 3.123762 s_2_7  + 2000.000000 r_2_1_3 > -998.091633
s_1_1 + s_1_4 + 1000 r_1_1_4 >= 2
- s_1_1 - s_1_4 - 1000 r_1_1_4 >= -1001
t_1_1 - t_1_4 - 1000.000000 u_1_1_4 - 3.176587 s_1_4  + 3.176587 s_1_7  + 2000.000000 r_1_1_4 > -997.482950
s_2_1 + s_2_4 + 1000 r_2_1_4 >= 2
- s_2_1 - s_2_4 - 1000 r_2_1_4 >= -1001
t_2_1 - t_2_4 - 1000.000000 u_2_1_4 - 3.123762 s_2_4  + 3.123762 s_2_7  + 2000.000000 r_2_1_4 > -997.107567
s_1_1 + s_1_5 + 1000 r_1_1_5 >= 2
- s_1_1 - s_1_5 - 1000 r_1_1_5 >= -1001
t_1_1 - t_1_5 - 1000.000000 u_1_1_5 - 3.176587 s_1_5  + 3.176587 s_1_8  + 2000.000000 r_1_1_5 > -994.621800
s_2_1 + s_2_5 + 1000 r_2_1_5 >= 2
- s_2_1 - s_2_5 - 1000 r_2_1_5 >= -1001
t_2_1 - t_2_5 - 1000.000000 u_2_1_5 - 3.123762 s_2_5  + 3.123762 s_2_8  + 2000.000000 r_2_1_5 > -995.371867
t_1_6 - t_1_1 - 1006.353174 s_1_1  + 3.176587 s_1_8  + 3.176587 s_1_7  > -988.795800
t_1_6 - t_2_1 - 1006.247524 s_2_1  + 3.123762 s_2_8  + 3.123762 s_2_7  > -990.977917
t_2_6 - t_1_1 - 1006.353174 s_1_1  + 3.176587 s_1_8  + 3.176587 s_1_7  > -988.795800
t_2_6 - t_2_1 - 1006.247524 s_2_1  + 3.123762 s_2_8  + 3.123762 s_2_7  > -990.977917
t_1_1 - t_1_7 - 1000.000000 s_1_7  > -984.725814
t_1_1 - t_2_7 - 1000.000000 s_2_7  > -993.175367
t_2_1 - t_1_7 - 1000.000000 s_1_7  > -984.725814
t_2_1 - t_2_7 - 1000.000000 s_2_7  > -993.175367
t_1_1 - t_1_8 - 1000.000000 s_1_8  > -985.034000
t_1_1 - t_2_8 - 1000.000000 s_2_8  > -993.642300
t_2_1 - t_1_8 - 1000.000000 s_1_8  > -985.034000
t_2_1 - t_2_8 - 1000.000000 s_2_8  > -993.642300
s_1_2 + s_1_1 + 1000 r_1_1_2 >= 2
- s_1_2 - s_1_1 - 1000 r_1_1_2 >= -1001
t_1_2 - t_1_1 + 1000.000000 u_1_1_2 - 6.353174 s_1_1  + 3.176587 s_1_8  + 3.176587 s_1_7  + 2000.000000 r_1_1_2 > 11.204200
s_2_2 + s_2_1 + 1000 r_2_1_2 >= 2
- s_2_2 - s_2_1 - 1000 r_2_1_2 >= -1001
t_2_2 - t_2_1 + 1000.000000 u_2_1_2 - 6.247524 s_2_1  + 3.123762 s_2_8  + 3.123762 s_2_7  + 2000.000000 r_2_1_2 > 9.022083
s_1_2 + s_1_3 + 1000 r_1_2_3 >= 2
- s_1_2 - s_1_3 - 1000 r_1_2_3 >= -1001
t_1_2 - t_1_3 - 1000.000000 u_1_2_3 - 6.353174 s_1_3  + 3.176587 s_1_8  + 3.176587 s_1_7  + 2000.000000 r_1_2_3 > -998.340833
s_2_2 + s_2_3 + 1000 r_2_2_3 >= 2
- s_2_2 - s_2_3 - 1000 r_2_2_3 >= -1001
t_2_2 - t_2_3 - 1000.000000 u_2_2_3 - 6.247524 s_2_3  + 3.123762 s_2_8  + 3.123762 s_2_7  + 2000.000000 r_2_2_3 > -998.091633
s_1_2 + s_1_4 + 1000 r_1_2_4 >= 2
- s_1_2 - s_1_4 - 1000 r_1_2_4 >= -1001
t_1_2 - t_1_4 - 1000.000000 u_1_2_4 - 3.176587 s_1_4  + 3.176587 s_1_7  + 2000.000000 r_1_2_4 > -997.482950
s_2_2 + s_2_4 + 1000 r_2_2_4 >= 2
- s_2_2 - s_2_4 - 1000 r_2_2_4 >= -1001
t_2_2 - t_2_4 - 1000.000000 u_2_2_4 - 3.123762 s_2_4  + 3.123762 s_2_7  + 2000.000000 r_2_2_4 > -997.107567
s_1_2 + s_1_5 + 1000 r_1_2_5 >= 2
- s_1_2 - s_1_5 - 1000 r_1_2_5 >= -1001
t_1_2 - t_1_5 - 1000.000000 u_1_2_5 - 3.176587 s_1_5  + 3.176587 s_1_8  + 2000.000000 r_1_2_5 > -994.621800
s_2_2 + s_2_5 + 1000 r_2_2_5 >= 2
- s_2_2 - s_2_5 - 1000 r_2_2_5 >= -1001
t_2_2 - t_2_5 - 1000.000000 u_2_2_5 - 3.123762 s_2_5  + 3.123762 s_2_8  + 2000.000000 r_2_2_5 > -995.371867
t_1_6 - t_1_2 - 1003.176587 s_1_2  + 3.176587 s_1_7  > -988.699278
t_1_6 - t_2_2 - 1003.123762 s_2_2  + 3.123762 s_2_7  > -990.776978
t_2_6 - t_1_2 - 1003.176587 s_1_2  + 3.176587 s_1_7  > -988.699278
t_2_6 - t_2_2 - 1003.123762 s_2_2  + 3.123762 s_2_7  > -990.776978
t_1_2 - t_1_7 - 1000.000000 s_1_7  > -984.725814
t_1_2 - t_2_7 - 1000.000000 s_2_7  > -993.175367
t_2_2 - t_1_7 - 1000.000000 s_1_7  > -984.725814
t_2_2 - t_2_7 - 1000.000000 s_2_7  > -993.175367
s_1_2 + s_1_8 + 1000 r_1_2_8 >= 2
- s_1_2 - s_1_8 - 1000 r_1_2_8 >= -1001
t_1_2 - t_1_8 - 1000.000000 u_1_2_8 - 0.000000 s_1_8  + 2000.000000 r_1_2_8 > -985.034000
s_2_2 + s_2_8 + 1000 r_2_2_8 >= 2
- s_2_2 - s_2_8 - 1000 r_2_2_8 >= -1001
t_2_2 - t_2_8 - 1000.000000 u_2_2_8 - 0.000000 s_2_8  + 2000.000000 r_2_2_8 > -993.642300
s_1_3 + s_1_1 + 1000 r_1_1_3 >= 2
- s_1_3 - s_1_1 - 1000 r_1_1_3 >= -1001
t_1_3 - t_1_1 + 1000.000000 u_1_1_3 - 6.353174 s_1_1  + 3.176587 s_1_8  + 3.176587 s_1_7  + 2000.000000 r_1_1_3 > 11.204200
s_2_3 + s_2_1 + 1000 r_2_1_3 >= 2
- s_2_3 - s_2_1 - 1000 r_2_1_3 >= -1001
t_2_3 - t_2_1 + 1000.000000 u_2_1_3 - 6.247524 s_2_1  + 3.123762 s_2_8  + 3.123762 s_2_7  + 2000.000000 r_2_1_3 > 9.022083
s_1_3 + s_1_2 + 1000 r_1_2_3 >= 2
- s_1_3 - s_1_2 - 1000 r_1_2_3 >= -1001
t_1_3 - t_1_2 + 1000.000000 u_1_2_3 - 3.176587 s_1_2  + 3.176587 s_1_7  + 2000.000000 r_1_2_3 > 11.300722
s_2_3 + s_2_2 + 1000 r_2_2_3 >= 2
- s_2_3 - s_2_2 - 1000 r_2_2_3 >= -1001
t_2_3 - t_2_2 + 1000.000000 u_2_2_3 - 3.123762 s_2_2  + 3.123762 s_2_7  + 2000.000000 r_2_2_3 > 9.223022
s_1_3 + s_1_4 + 1000 r_1_3_4 >= 2
- s_1_3 - s_1_4 - 1000 r_1_3_4 >= -1001
t_1_3 - t_1_4 - 1000.000000 u_1_3_4 - 3.176587 s_1_4  + 3.176587 s_1_7  + 2000.000000 r_1_3_4 > -997.482950
s_2_3 + s_2_4 + 1000 r_2_3_4 >= 2
- s_2_3 - s_2_4 - 1000 r_2_3_4 >= -1001
t_2_3 - t_2_4 - 1000.000000 u_2_3_4 - 3.123762 s_2_4  + 3.123762 s_2_7  + 2000.000000 r_2_3_4 > -997.107567
s_1_3 + s_1_5 + 1000 r_1_3_5 >= 2
- s_1_3 - s_1_5 - 1000 r_1_3_5 >= -1001
t_1_3 - t_1_5 - 1000.000000 u_1_3_5 - 3.176587 s_1_5  + 3.176587 s_1_8  + 2000.000000 r_1_3_5 > -994.621800
s_2_3 + s_2_5 + 1000 r_2_3_5 >= 2
- s_2_3 - s_2_5 - 1000 r_2_3_5 >= -1001
t_2_3 - t_2_5 - 1000.000000 u_2_3_5 - 3.123762 s_2_5  + 3.123762 s_2_8  + 2000.000000 r_2_3_5 > -995.371867
t_1_6 - t_1_3 - 1006.353174 s_1_3  + 3.176587 s_1_8  + 3.176587 s_1_7  > -998.340833
t_1_6 - t_2_3 - 1006.247524 s_2_3  + 3.123762 s_2_8  + 3.123762 s_2_7  > -998.091633
t_2_6 - t_1_3 - 1006.353174 s_1_3  + 3.176587 s_1_8  + 3.176587 s_1_7  > -998.340833
t_2_6 - t_2_3 - 1006.247524 s_2_3  + 3.123762 s_2_8  + 3.123762 s_2_7  > -998.091633
t_1_3 - t_1_7 - 1000.000000 s_1_7  > -984.725814
t_1_3 - t_2_7 - 1000.000000 s_2_7  > -993.175367
t_2_3 - t_1_7 - 1000.000000 s_1_7  > -984.725814
t_2_3 - t_2_7 - 1000.000000 s_2_7  > -993.175367
t_1_3 - t_1_8 - 1000.000000 s_1_8  > -985.034000
t_1_3 - t_2_8 - 1000.000000 s_2_8  > -993.642300
t_2_3 - t_1_8 - 1000.000000 s_1_8  > -985.034000
t_2_3 - t_2_8 - 1000.000000 s_2_8  > -993.642300
s_1_4 + s_1_1 + 1000 r_1_1_4 >= 2
- s_1_4 - s_1_1 - 1000 r_1_1_4 >= -1001
t_1_4 - t_1_1 + 1000.000000 u_1_1_4 - 6.353174 s_1_1  + 3.176587 s_1_8  + 3.176587 s_1_7  + 2000.000000 r_1_1_4 > 11.204200
s_2_4 + s_2_1 + 1000 r_2_1_4 >= 2
- s_2_4 - s_2_1 - 1000 r_2_1_4 >= -1001
t_2_4 - t_2_1 + 1000.000000 u_2_1_4 - 6.247524 s_2_1  + 3.123762 s_2_8  + 3.123762 s_2_7  + 2000.000000 r_2_1_4 > 9.022083
s_1_4 + s_1_2 + 1000 r_1_2_4 >= 2
- s_1_4 - s_1_2 - 1000 r_1_2_4 >= -1001
t_1_4 - t_1_2 + 1000.000000 u_1_2_4 - 3.176587 s_1_2  + 3.176587 s_1_7  + 2000.000000 r_1_2_4 > 11.300722
s_2_4 + s_2_2 + 1000 r_2_2_4 >= 2
- s_2_4 - s_2_2 - 1000 r_2_2_4 >= -1001
t_2_4 - t_2_2 + 1000.000000 u_2_2_4 - 3.123762 s_2_2  + 3.123762 s_2_7  + 2000.000000 r_2_2_4 > 9.223022
s_1_4 + s_1_3 + 1000 r_1_3_4 >= 2
- s_1_4 - s_1_3 - 1000 r_1_3_4 >= -1001
t_1_4 - t_1_3 + 1000.000000 u_1_3_4 - 6.353174 s_1_3  + 3.176587 s_1_8  + 3.176587 s_1_7  + 2000.000000 r_1_3_4 > 1.659167
s_2_4 + s_2_3 + 1000 r_2_3_4 >= 2
- s_2_4 - s_2_3 - 1000 r_2_3_4 >= -1001
t_2_4 - t_2_3 + 1000.000000 u_2_3_4 - 6.247524 s_2_3  + 3.123762 s_2_8  + 3.123762 s_2_7  + 2000.000000 r_2_3_4 > 1.908367
s_1_4 + s_1_5 + 1000 r_1_4_5 >= 2
- s_1_4 - s_1_5 - 1000 r_1_4_5 >= -1001
t_1_4 - t_1_5 - 1000.000000 u_1_4_5 - 3.176587 s_1_5  + 3.176587 s_1_8  + 2000.000000 r_1_4_5 > -994.621800
s_2_4 + s_2_5 + 1000 r_2_4_5 >= 2
- s_2_4 - s_2_5 - 1000 r_2_4_5 >= -1001
t_2_4 - t_2_5 - 1000.000000 u_2_4_5 - 3.123762 s_2_5  + 3.123762 s_2_8  + 2000.000000 r_2_4_5 > -995.371867
t_1_6 - t_1_4 - 1003.176587 s_1_4  + 3.176587 s_1_7  > -997.482950
t_1_6 - t_2_4 - 1003.123762 s_2_4  + 3.123762 s_2_7  > -997.107567
t_2_6 - t_1_4 - 1003.176587 s_1_4  + 3.176587 s_1_7  > -997.482950
t_2_6 - t_2_4 - 1003.123762 s_2_4  + 3.123762 s_2_7  > -997.107567
t_1_4 - t_1_7 - 1000.000000 s_1_7  > -984.725814
t_1_4 - t_2_7 - 1000.000000 s_2_7  > -993.175367
t_2_4 - t_1_7 - 1000.000000 s_1_7  > -984.725814
t_2_4 - t_2_7 - 1000.000000 s_2_7  > -993.175367
s_1_4 + s_1_8 + 1000 r_1_4_8 >= 2
- s_1_4 - s_1_8 - 1000 r_1_4_8 >= -1001
t_1_4 - t_1_8 - 1000.000000 u_1_4_8 - 0.000000 s_1_8  + 2000.000000 r_1_4_8 > -985.034000
s_2_4 + s_2_8 + 1000 r_2_4_8 >= 2
- s_2_4 - s_2_8 - 1000 r_2_4_8 >= -1001
t_2_4 - t_2_8 - 1000.000000 u_2_4_8 - 0.000000 s_2_8  + 2000.000000 r_2_4_8 > -993.642300
s_1_5 + s_1_1 + 1000 r_1_1_5 >= 2
- s_1_5 - s_1_1 - 1000 r_1_1_5 >= -1001
t_1_5 - t_1_1 + 1000.000000 u_1_1_5 - 6.353174 s_1_1  + 3.176587 s_1_8  + 3.176587 s_1_7  + 2000.000000 r_1_1_5 > 11.204200
s_2_5 + s_2_1 + 1000 r_2_1_5 >= 2
- s_2_5 - s_2_1 - 1000 r_2_1_5 >= -1001
t_2_5 - t_2_1 + 1000.000000 u_2_1_5 - 6.247524 s_2_1  + 3.123762 s_2_8  + 3.123762 s_2_7  + 2000.000000 r_2_1_5 > 9.022083
s_1_5 + s_1_2 + 1000 r_1_2_5 >= 2
- s_1_5 - s_1_2 - 1000 r_1_2_5 >= -1001
t_1_5 - t_1_2 + 1000.000000 u_1_2_5 - 3.176587 s_1_2  + 3.176587 s_1_7  + 2000.000000 r_1_2_5 > 11.300722
s_2_5 + s_2_2 + 1000 r_2_2_5 >= 2
- s_2_5 - s_2_2 - 1000 r_2_2_5 >= -1001
t_2_5 - t_2_2 + 1000.000000 u_2_2_5 - 3.123762 s_2_2  + 3.123762 s_2_7  + 2000.000000 r_2_2_5 > 9.223022
s_1_5 + s_1_3 + 1000 r_1_3_5 >= 2
- s_1_5 - s_1_3 - 1000 r_1_3_5 >= -1001
t_1_5 - t_1_3 + 1000.000000 u_1_3_5 - 6.353174 s_1_3  + 3.176587 s_1_8  + 3.176587 s_1_7  + 2000.000000 r_1_3_5 > 1.659167
s_2_5 + s_2_3 + 1000 r_2_3_5 >= 2
- s_2_5 - s_2_3 - 1000 r_2_3_5 >= -1001
t_2_5 - t_2_3 + 1000.000000 u_2_3_5 - 6.247524 s_2_3  + 3.123762 s_2_8  + 3.123762 s_2_7  + 2000.000000 r_2_3_5 > 1.908367
s_1_5 + s_1_4 + 1000 r_1_4_5 >= 2
- s_1_5 - s_1_4 - 1000 r_1_4_5 >= -1001
t_1_5 - t_1_4 + 1000.000000 u_1_4_5 - 3.176587 s_1_4  + 3.176587 s_1_7  + 2000.000000 r_1_4_5 > 2.517050
s_2_5 + s_2_4 + 1000 r_2_4_5 >= 2
- s_2_5 - s_2_4 - 1000 r_2_4_5 >= -1001
t_2_5 - t_2_4 + 1000.000000 u_2_4_5 - 3.123762 s_2_4  + 3.123762 s_2_7  + 2000.000000 r_2_4_5 > 2.892433
t_1_6 - t_1_5 - 1003.176587 s_1_5  + 3.176587 s_1_8  > -994.621800
t_1_6 - t_2_5 - 1003.123762 s_2_5  + 3.123762 s_2_8  > -995.371867
t_2_6 - t_1_5 - 1003.176587 s_1_5  + 3.176587 s_1_8  > -994.621800
t_2_6 - t_2_5 - 1003.123762 s_2_5  + 3.123762 s_2_8  > -995.371867
s_1_5 + s_1_7 + 1000 r_1_5_7 >= 2
- s_1_5 - s_1_7 - 1000 r_1_5_7 >= -1001
t_1_5 - t_1_7 - 1000.000000 u_1_5_7 - 0.000000 s_1_7  + 2000.000000 r_1_5_7 > -984.725814
s_2_5 + s_2_7 + 1000 r_2_5_7 >= 2
- s_2_5 - s_2_7 - 1000 r_2_5_7 >= -1001
t_2_5 - t_2_7 - 1000.000000 u_2_5_7 - 0.000000 s_2_7  + 2000.000000 r_2_5_7 > -993.175367
t_1_5 - t_1_8 - 1000.000000 s_1_8  > -985.034000
t_1_5 - t_2_8 - 1000.000000 s_2_8  > -993.642300
t_2_5 - t_1_8 - 1000.000000 s_1_8  > -985.034000
t_2_5 - t_2_8 - 1000.000000 s_2_8  > -993.642300
t_1_6 - t_1_7 - 1000.000000 s_1_7  > -984.725814
t_1_6 - t_2_7 - 1000.000000 s_2_7  > -993.175367
t_2_6 - t_1_7 - 1000.000000 s_1_7  > -984.725814
t_2_6 - t_2_7 - 1000.000000 s_2_7  > -993.175367
s_1_7 + s_1_5 + 1000 r_1_5_7 >= 2
- s_1_7 - s_1_5 - 1000 r_1_5_7 >= -1001
t_1_7 - t_1_5 + 1000.000000 u_1_5_7 - 3.176587 s_1_5  + 3.176587 s_1_8  + 2000.000000 r_1_5_7 > 5.378200
s_2_7 + s_2_5 + 1000 r_2_5_7 >= 2
- s_2_7 - s_2_5 - 1000 r_2_5_7 >= -1001
t_2_7 - t_2_5 + 1000.000000 u_2_5_7 - 3.123762 s_2_5  + 3.123762 s_2_8  + 2000.000000 r_2_5_7 > 4.628133
s_1_7 + s_1_8 + 1000 r_1_7_8 >= 2
- s_1_7 - s_1_8 - 1000 r_1_7_8 >= -1001
t_1_7 - t_1_8 - 1000.000000 u_1_7_8 - 0.000000 s_1_8  + 2000.000000 r_1_7_8 > -985.034000
s_2_7 + s_2_8 + 1000 r_2_7_8 >= 2
- s_2_7 - s_2_8 - 1000 r_2_7_8 >= -1001
t_2_7 - t_2_8 - 1000.000000 u_2_7_8 - 0.000000 s_2_8  + 2000.000000 r_2_7_8 > -993.642300
s_1_8 + s_1_2 + 1000 r_1_2_8 >= 2
- s_1_8 - s_1_2 - 1000 r_1_2_8 >= -1001
t_1_8 - t_1_2 + 1000.000000 u_1_2_8 - 3.176587 s_1_2  + 3.176587 s_1_7  + 2000.000000 r_1_2_8 > 11.300722
s_2_8 + s_2_2 + 1000 r_2_2_8 >= 2
- s_2_8 - s_2_2 - 1000 r_2_2_8 >= -1001
t_2_8 - t_2_2 + 1000.000000 u_2_2_8 - 3.123762 s_2_2  + 3.123762 s_2_7  + 2000.000000 r_2_2_8 > 9.223022
s_1_8 + s_1_4 + 1000 r_1_4_8 >= 2
- s_1_8 - s_1_4 - 1000 r_1_4_8 >= -1001
t_1_8 - t_1_4 + 1000.000000 u_1_4_8 - 3.176587 s_1_4  + 3.176587 s_1_7  + 2000.000000 r_1_4_8 > 2.517050
s_2_8 + s_2_4 + 1000 r_2_4_8 >= 2
- s_2_8 - s_2_4 - 1000 r_2_4_8 >= -1001
t_2_8 - t_2_4 + 1000.000000 u_2_4_8 - 3.123762 s_2_4  + 3.123762 s_2_7  + 2000.000000 r_2_4_8 > 2.892433
s_1_8 + s_1_7 + 1000 r_1_7_8 >= 2
- s_1_8 - s_1_7 - 1000 r_1_7_8 >= -1001
t_1_8 - t_1_7 + 1000.000000 u_1_7_8 - 0.000000 s_1_7  + 2000.000000 r_1_7_8 > 15.274186
s_2_8 + s_2_7 + 1000 r_2_7_8 >= 2
- s_2_8 - s_2_7 - 1000 r_2_7_8 >= -1001
t_2_8 - t_2_7 + 1000.000000 u_2_7_8 - 0.000000 s_2_7  + 2000.000000 r_2_7_8 > 6.824633
Binary
s_1_1
s_2_1
s_1_2
s_2_2
s_1_3
s_2_3
s_1_4
s_2_4
s_1_5
s_2_5
s_1_6
s_2_6
s_1_7
s_2_7
s_1_8
s_2_8
u_1_1_2
r_1_1_2
u_2_1_2
r_2_1_2
u_1_1_3
r_1_1_3
u_2_1_3
r_2_1_3
u_1_1_4
r_1_1_4
u_2_1_4
r_2_1_4
u_1_1_5
r_1_1_5
u_2_1_5
r_2_1_5
u_1_2_3
r_1_2_3
u_2_2_3
r_2_2_3
u_1_2_4
r_1_2_4
u_2_2_4
r_2_2_4
u_1_2_5
r_1_2_5
u_2_2_5
r_2_2_5
u_1_2_8
r_1_2_8
u_2_2_8
r_2_2_8
u_1_3_4
r_1_3_4
u_2_3_4
r_2_3_4
u_1_3_5
r_1_3_5
u_2_3_5
r_2_3_5
u_1_4_5
r_1_4_5
u_2_4_5
r_2_4_5
u_1_4_8
r_1_4_8
u_2_4_8
r_2_4_8
u_1_5_7
r_1_5_7
u_2_5_7
r_2_5_7
u_1_7_8
r_1_7_8
u_2_7_8
r_2_7_8

End
